(set-logic ALL)
(declare-fun var0 () String)
(assert (str.in_re var0 (re.++ (re.* (re.+ (re.union (re.+ (re.* (re.+ (re.+ (re.* (re.+ (re.* (re.* (re.union (re.* (re.+ (str.to_re "000"))) (re.* (re.* (str.to_re "1")))))))))))) (re.+ (re.union (re.union (re.+ (re.union (re.union (re.* (re.union (re.union (re.+ (re.+ (str.to_re "2"))) (re.+ (re.union (str.to_re "33") (str.to_re "444")))) (re.union (re.union (re.* (str.to_re "55")) (re.* (str.to_re "66"))) (re.union (re.* (str.to_re "77")) (re.* (str.to_re "8")))))) (re.* (re.+ (re.* (re.+ (re.union (str.to_re "99") (str.to_re "aaa"))))))) (re.union (re.+ (re.* (re.* (re.* (re.* (str.to_re "bbb")))))) (re.+ (re.union (re.+ (re.+ (re.+ (str.to_re "c")))) (re.+ (re.union (re.* (str.to_re "dd")) (re.* (str.to_re "e"))))))))) (re.+ (re.* (re.* (re.* (re.+ (re.union (re.* (re.+ (str.to_re "f"))) (re.* (re.+ (str.to_re "gg")))))))))) (re.union (re.union (re.union (re.* (re.+ (re.union (re.union (re.* (re.+ (str.to_re "h"))) (re.* (re.+ (str.to_re "iii")))) (re.union (re.+ (re.+ (str.to_re "jj"))) (re.+ (re.* (str.to_re "k"))))))) (re.* (re.* (re.+ (re.* (re.* (re.+ (str.to_re "lll")))))))) (re.union (re.union (re.+ (re.+ (re.union (re.union (re.union (str.to_re "mm") (str.to_re "nn")) (re.union (str.to_re "o") (str.to_re "ppp"))) (re.union (re.+ (str.to_re "qq")) (re.+ (str.to_re "rrr")))))) (re.+ (re.* (re.union (re.union (re.+ (str.to_re "ss")) (re.+ (str.to_re "ttt"))) (re.union (re.union (str.to_re "uu") (str.to_re "v")) (re.union (str.to_re "w") (str.to_re "xx"))))))) (re.union (re.union (re.+ (re.+ (re.union (re.union (str.to_re "yyy") (str.to_re "zzz")) (re.union (str.to_re "AA") (str.to_re "BB"))))) (re.+ (re.union (re.* (re.union (str.to_re "CCC") (str.to_re "D"))) (re.* (re.+ (str.to_re "E")))))) (re.union (re.union (re.+ (re.union (re.* (str.to_re "F")) (re.* (str.to_re "GGG")))) (re.+ (re.+ (re.* (str.to_re "HHH"))))) (re.union (re.* (re.union (re.* (str.to_re "II")) (re.* (str.to_re "JJJ")))) (re.* (re.* (re.union (str.to_re "KKK") (str.to_re "L"))))))))) (re.union (re.+ (re.+ (re.union (re.+ (re.* (re.+ (re.+ (str.to_re "MMM"))))) (re.+ (re.* (re.+ (re.union (str.to_re "NNN") (str.to_re "OOO")))))))) (re.+ (re.union (re.* (re.union (re.* (re.+ (re.* (str.to_re "PPP")))) (re.* (re.* (re.union (str.to_re "QQ") (str.to_re "R")))))) (re.* (re.+ (re.* (re.* (re.* (str.to_re "SS"))))))))))))))) (re.+ (re.union (re.* (re.union (re.+ (re.+ (re.* (re.+ (re.union (re.* (re.union (re.union (re.+ (re.* (str.to_re "TTT"))) (re.+ (re.+ (str.to_re "UUU")))) (re.union (re.* (re.+ (str.to_re "VVV"))) (re.* (re.union (str.to_re "W") (str.to_re "X")))))) (re.* (re.+ (re.+ (re.* (re.* (str.to_re "YY"))))))))))) (re.+ (re.union (re.union (re.* (re.* (re.union (re.* (re.union (re.union (re.union (str.to_re "Z") (str.to_re "!!")) (re.union (str.to_re """""""") (str.to_re "#"))) (re.union (re.* (str.to_re "$$$")) (re.* (str.to_re "%%%"))))) (re.* (re.+ (re.* (re.union (str.to_re "&&&") (str.to_re "'")))))))) (re.* (re.* (re.union (re.+ (re.* (re.* (re.union (str.to_re "(((") (str.to_re ")))"))))) (re.+ (re.* (re.+ (re.union (str.to_re "**") (str.to_re "++"))))))))) (re.union (re.+ (re.+ (re.* (re.+ (re.union (re.+ (re.+ (str.to_re ",,,"))) (re.+ (re.union (str.to_re "--") (str.to_re "...")))))))) (re.+ (re.union (re.* (re.+ (re.union (re.* (re.union (str.to_re "/") (str.to_re ":"))) (re.* (re.union (str.to_re ";;") (str.to_re "<<")))))) (re.* (re.union (re.* (re.union (re.union (str.to_re "===") (str.to_re ">>")) (re.union (str.to_re "?") (str.to_re "@")))) (re.* (re.+ (re.union (str.to_re "[") (str.to_re "\\"))))))))))))) (re.* (re.* (re.+ (re.+ (re.* (re.+ (re.+ (re.+ (re.* (re.* (re.* (re.union (str.to_re "]") (str.to_re "^^^"))))))))))))))))))
(assert (<= 15 (str.len var0)))
(check-sat)